p cnf 96 608
1 2 0
3 2 0
-1 -3 -2 0
4 5 0
6 -2 5 0
-4 -6 -5 0
-4 2 -5 0
7 -8 0
9 10 11 12 13 14 15 16 17 18 19 20 21 22 23 24 25 26 27 28 29 30 31 32 33 34 -5 7 0
8 -9 -7 0
8 -10 -7 0
8 -11 -7 0
8 -12 -7 0
8 -13 -7 0
8 -14 -7 0
8 -15 -7 0
8 -16 -7 0
8 -17 -7 0
8 -18 -7 0
8 -19 -7 0
8 -20 -7 0
8 -21 -7 0
8 -22 -7 0
8 -23 -7 0
8 -24 -7 0
8 -25 -7 0
8 -26 -7 0
8 -27 -7 0
8 -28 -7 0
8 -29 -7 0
8 -30 -7 0
8 -31 -7 0
8 -32 -7 0
8 -33 -7 0
8 -34 -7 0
8 5 -7 0
-3 -6 35 0
-1 -36 -6 35 0
-1 -3 -36 35 0
3 1 -35 0
1 6 -35 0
36 3 1 -35 0
36 1 6 -35 0
3 1 6 -35 0
36 3 -35 0
36 3 6 -35 0
3 6 -35 0
36 6 -35 0
1 4 -37 0
4 35 -37 0
1 35 -37 0
-4 -1 37 0
37 -4 -35 0
37 -1 -35 0
6 9 -38 0
6 37 -38 0
9 37 -38 0
38 -6 -9 0
38 -6 -37 0
38 -9 -37 0
4 10 -39 0
4 38 -39 0
10 38 -39 0
39 -4 -10 0
39 -4 -38 0
39 -10 -38 0
9 11 -40 0
9 39 -40 0
11 39 -40 0
40 -9 -11 0
40 -9 -39 0
40 -11 -39 0
10 12 -41 0
10 40 -41 0
12 40 -41 0
41 -10 -12 0
41 -10 -40 0
41 -12 -40 0
11 13 -42 0
11 41 -42 0
13 41 -42 0
42 -11 -13 0
42 -11 -41 0
42 -13 -41 0
12 14 -43 0
12 42 -43 0
14 42 -43 0
43 -12 -14 0
43 -12 -42 0
43 -14 -42 0
13 15 -44 0
13 43 -44 0
15 43 -44 0
44 -13 -15 0
44 -13 -43 0
44 -15 -43 0
14 16 -45 0
14 44 -45 0
16 44 -45 0
45 -14 -16 0
45 -14 -44 0
45 -16 -44 0
15 17 -46 0
15 45 -46 0
17 45 -46 0
46 -15 -17 0
46 -15 -45 0
46 -17 -45 0
16 18 -47 0
16 46 -47 0
18 46 -47 0
47 -16 -18 0
47 -16 -46 0
47 -18 -46 0
17 19 -48 0
17 47 -48 0
19 47 -48 0
48 -17 -19 0
48 -17 -47 0
48 -19 -47 0
18 20 -49 0
18 48 -49 0
20 48 -49 0
49 -18 -20 0
49 -18 -48 0
49 -20 -48 0
19 21 -50 0
19 49 -50 0
21 49 -50 0
50 -19 -21 0
50 -19 -49 0
50 -21 -49 0
20 22 -51 0
20 50 -51 0
22 50 -51 0
51 -20 -22 0
51 -20 -50 0
51 -22 -50 0
21 23 -52 0
21 51 -52 0
23 51 -52 0
52 -21 -23 0
52 -21 -51 0
52 -23 -51 0
22 24 -53 0
22 52 -53 0
24 52 -53 0
53 -22 -24 0
53 -22 -52 0
53 -24 -52 0
23 25 -54 0
23 53 -54 0
25 53 -54 0
54 -23 -25 0
54 -23 -53 0
54 -25 -53 0
24 26 -55 0
24 54 -55 0
26 54 -55 0
55 -24 -26 0
55 -24 -54 0
55 -26 -54 0
25 27 -56 0
25 55 -56 0
27 55 -56 0
56 -25 -27 0
56 -25 -55 0
56 -27 -55 0
26 28 -57 0
26 56 -57 0
28 56 -57 0
57 -26 -28 0
57 -26 -56 0
57 -28 -56 0
27 29 -58 0
27 57 -58 0
29 57 -58 0
58 -27 -29 0
58 -27 -57 0
58 -29 -57 0
28 30 -59 0
28 58 -59 0
30 58 -59 0
59 -28 -30 0
59 -28 -58 0
59 -30 -58 0
29 31 -60 0
29 59 -60 0
31 59 -60 0
60 -29 -31 0
60 -29 -59 0
60 -31 -59 0
30 32 -61 0
30 60 -61 0
32 60 -61 0
61 -30 -32 0
61 -30 -60 0
61 -32 -60 0
31 33 61 -62 0
33 -31 -61 -62 0
31 -33 -61 -62 0
-31 -33 61 -62 0
-31 -33 -61 62 0
31 -33 61 62 0
33 -31 61 62 0
31 33 -61 62 0
30 32 60 -63 0
32 -30 -60 -63 0
30 -32 -60 -63 0
-30 -32 60 -63 0
-30 -32 -60 63 0
30 -32 60 63 0
32 -30 60 63 0
30 32 -60 63 0
29 31 59 -64 0
31 -29 -59 -64 0
29 -31 -59 -64 0
-29 -31 59 -64 0
-29 -31 -59 64 0
29 -31 59 64 0
31 -29 59 64 0
29 31 -59 64 0
28 30 58 -65 0
30 -28 -58 -65 0
28 -30 -58 -65 0
-28 -30 58 -65 0
-28 -30 -58 65 0
28 -30 58 65 0
30 -28 58 65 0
28 30 -58 65 0
27 29 57 -66 0
29 -27 -57 -66 0
27 -29 -57 -66 0
-27 -29 57 -66 0
-27 -29 -57 66 0
27 -29 57 66 0
29 -27 57 66 0
27 29 -57 66 0
26 28 56 -67 0
28 -26 -56 -67 0
26 -28 -56 -67 0
-26 -28 56 -67 0
-26 -28 -56 67 0
26 -28 56 67 0
28 -26 56 67 0
26 28 -56 67 0
25 27 55 -68 0
27 -25 -55 -68 0
25 -27 -55 -68 0
-25 -27 55 -68 0
-25 -27 -55 68 0
25 -27 55 68 0
27 -25 55 68 0
25 27 -55 68 0
24 26 54 -69 0
26 -24 -54 -69 0
24 -26 -54 -69 0
-24 -26 54 -69 0
-24 -26 -54 69 0
24 -26 54 69 0
26 -24 54 69 0
24 26 -54 69 0
23 25 53 -70 0
25 -23 -53 -70 0
23 -25 -53 -70 0
-23 -25 53 -70 0
-23 -25 -53 70 0
23 -25 53 70 0
25 -23 53 70 0
23 25 -53 70 0
22 24 52 -71 0
24 -22 -52 -71 0
22 -24 -52 -71 0
-22 -24 52 -71 0
-22 -24 -52 71 0
22 -24 52 71 0
24 -22 52 71 0
22 24 -52 71 0
21 23 51 -72 0
23 -21 -51 -72 0
21 -23 -51 -72 0
-21 -23 51 -72 0
-21 -23 -51 72 0
21 -23 51 72 0
23 -21 51 72 0
21 23 -51 72 0
20 22 50 -73 0
22 -20 -50 -73 0
20 -22 -50 -73 0
-20 -22 50 -73 0
-20 -22 -50 73 0
20 -22 50 73 0
22 -20 50 73 0
20 22 -50 73 0
19 21 49 -74 0
21 -19 -49 -74 0
19 -21 -49 -74 0
-19 -21 49 -74 0
-19 -21 -49 74 0
19 -21 49 74 0
21 -19 49 74 0
19 21 -49 74 0
18 20 48 -75 0
20 -18 -48 -75 0
18 -20 -48 -75 0
-18 -20 48 -75 0
-18 -20 -48 75 0
18 -20 48 75 0
20 -18 48 75 0
18 20 -48 75 0
17 19 47 -76 0
19 -17 -47 -76 0
17 -19 -47 -76 0
-17 -19 47 -76 0
-17 -19 -47 76 0
17 -19 47 76 0
19 -17 47 76 0
17 19 -47 76 0
16 18 46 -77 0
18 -16 -46 -77 0
16 -18 -46 -77 0
-16 -18 46 -77 0
-16 -18 -46 77 0
16 -18 46 77 0
18 -16 46 77 0
16 18 -46 77 0
15 17 45 -78 0
17 -15 -45 -78 0
15 -17 -45 -78 0
-15 -17 45 -78 0
-15 -17 -45 78 0
15 -17 45 78 0
17 -15 45 78 0
15 17 -45 78 0
14 16 44 -79 0
16 -14 -44 -79 0
14 -16 -44 -79 0
-14 -16 44 -79 0
-14 -16 -44 79 0
14 -16 44 79 0
16 -14 44 79 0
14 16 -44 79 0
13 15 43 -80 0
15 -13 -43 -80 0
13 -15 -43 -80 0
-13 -15 43 -80 0
-13 -15 -43 80 0
13 -15 43 80 0
15 -13 43 80 0
13 15 -43 80 0
12 14 42 -81 0
14 -12 -42 -81 0
12 -14 -42 -81 0
-12 -14 42 -81 0
-12 -14 -42 81 0
12 -14 42 81 0
14 -12 42 81 0
12 14 -42 81 0
11 13 41 -82 0
13 -11 -41 -82 0
11 -13 -41 -82 0
-11 -13 41 -82 0
-11 -13 -41 82 0
11 -13 41 82 0
13 -11 41 82 0
11 13 -41 82 0
10 12 40 -83 0
12 -10 -40 -83 0
10 -12 -40 -83 0
-10 -12 40 -83 0
-10 -12 -40 83 0
10 -12 40 83 0
12 -10 40 83 0
10 12 -40 83 0
9 11 39 -84 0
11 -9 -39 -84 0
9 -11 -39 -84 0
-9 -11 39 -84 0
-9 -11 -39 84 0
9 -11 39 84 0
11 -9 39 84 0
9 11 -39 84 0
4 10 38 -85 0
10 -4 -38 -85 0
4 -10 -38 -85 0
-4 -10 38 -85 0
-4 -10 -38 85 0
4 -10 38 85 0
10 -4 38 85 0
4 10 -38 85 0
6 9 37 -86 0
9 -6 -37 -86 0
6 -9 -37 -86 0
-6 -9 37 -86 0
-6 -9 -37 86 0
6 -9 37 86 0
9 -6 37 86 0
6 9 -37 86 0
4 87 0
3 1 6 87 0
-4 -3 -87 0
-4 -1 -87 0
-4 -6 -87 0
1 4 35 -88 0
4 -1 -35 -88 0
1 -4 -35 -88 0
-4 -1 35 -88 0
-4 -1 -35 88 0
1 -4 35 88 0
4 -1 35 88 0
1 4 -35 88 0
1 89 0
36 89 0
-1 -36 -89 0
3 6 89 -90 0
6 -3 -89 -90 0
3 -6 -89 -90 0
-3 -6 89 -90 0
-3 -6 -89 90 0
3 -6 89 90 0
6 -3 89 90 0
3 6 -89 90 0
1 -36 -91 0
36 -1 -91 0
-1 -36 91 0
36 1 91 0
-36 92 0
-3 92 0
-8 92 0
91 92 0
90 92 0
-88 92 0
9 10 11 12 13 14 15 16 17 18 19 20 21 22 23 24 25 26 27 28 29 30 31 32 33 34 -87 92 0
-86 92 0
-85 92 0
-84 92 0
-83 92 0
-82 92 0
-81 92 0
-80 92 0
-79 92 0
-78 92 0
-77 92 0
-76 92 0
-75 92 0
-74 92 0
-73 92 0
-72 92 0
-71 92 0
-70 92 0
-69 92 0
-68 92 0
-67 92 0
-66 92 0
-65 92 0
-64 92 0
-63 92 0
-62 92 0
7 92 0
36 3 8 -9 -7 62 63 64 65 66 67 68 69 70 71 72 73 74 75 76 77 78 79 80 81 82 83 84 85 86 88 -90 -91 -92 0
36 3 8 -10 -7 62 63 64 65 66 67 68 69 70 71 72 73 74 75 76 77 78 79 80 81 82 83 84 85 86 88 -90 -91 -92 0
36 3 8 -11 -7 62 63 64 65 66 67 68 69 70 71 72 73 74 75 76 77 78 79 80 81 82 83 84 85 86 88 -90 -91 -92 0
36 3 8 -12 -7 62 63 64 65 66 67 68 69 70 71 72 73 74 75 76 77 78 79 80 81 82 83 84 85 86 88 -90 -91 -92 0
36 3 8 -13 -7 62 63 64 65 66 67 68 69 70 71 72 73 74 75 76 77 78 79 80 81 82 83 84 85 86 88 -90 -91 -92 0
36 3 8 -14 -7 62 63 64 65 66 67 68 69 70 71 72 73 74 75 76 77 78 79 80 81 82 83 84 85 86 88 -90 -91 -92 0
36 3 8 -15 -7 62 63 64 65 66 67 68 69 70 71 72 73 74 75 76 77 78 79 80 81 82 83 84 85 86 88 -90 -91 -92 0
36 3 8 -16 -7 62 63 64 65 66 67 68 69 70 71 72 73 74 75 76 77 78 79 80 81 82 83 84 85 86 88 -90 -91 -92 0
36 3 8 -17 -7 62 63 64 65 66 67 68 69 70 71 72 73 74 75 76 77 78 79 80 81 82 83 84 85 86 88 -90 -91 -92 0
36 3 8 -18 -7 62 63 64 65 66 67 68 69 70 71 72 73 74 75 76 77 78 79 80 81 82 83 84 85 86 88 -90 -91 -92 0
36 3 8 -19 -7 62 63 64 65 66 67 68 69 70 71 72 73 74 75 76 77 78 79 80 81 82 83 84 85 86 88 -90 -91 -92 0
36 3 8 -20 -7 62 63 64 65 66 67 68 69 70 71 72 73 74 75 76 77 78 79 80 81 82 83 84 85 86 88 -90 -91 -92 0
36 3 8 -21 -7 62 63 64 65 66 67 68 69 70 71 72 73 74 75 76 77 78 79 80 81 82 83 84 85 86 88 -90 -91 -92 0
36 3 8 -22 -7 62 63 64 65 66 67 68 69 70 71 72 73 74 75 76 77 78 79 80 81 82 83 84 85 86 88 -90 -91 -92 0
36 3 8 -23 -7 62 63 64 65 66 67 68 69 70 71 72 73 74 75 76 77 78 79 80 81 82 83 84 85 86 88 -90 -91 -92 0
36 3 8 -24 -7 62 63 64 65 66 67 68 69 70 71 72 73 74 75 76 77 78 79 80 81 82 83 84 85 86 88 -90 -91 -92 0
36 3 8 -25 -7 62 63 64 65 66 67 68 69 70 71 72 73 74 75 76 77 78 79 80 81 82 83 84 85 86 88 -90 -91 -92 0
36 3 8 -26 -7 62 63 64 65 66 67 68 69 70 71 72 73 74 75 76 77 78 79 80 81 82 83 84 85 86 88 -90 -91 -92 0
36 3 8 -27 -7 62 63 64 65 66 67 68 69 70 71 72 73 74 75 76 77 78 79 80 81 82 83 84 85 86 88 -90 -91 -92 0
36 3 8 -28 -7 62 63 64 65 66 67 68 69 70 71 72 73 74 75 76 77 78 79 80 81 82 83 84 85 86 88 -90 -91 -92 0
36 3 8 -29 -7 62 63 64 65 66 67 68 69 70 71 72 73 74 75 76 77 78 79 80 81 82 83 84 85 86 88 -90 -91 -92 0
36 3 8 -30 -7 62 63 64 65 66 67 68 69 70 71 72 73 74 75 76 77 78 79 80 81 82 83 84 85 86 88 -90 -91 -92 0
36 3 8 -31 -7 62 63 64 65 66 67 68 69 70 71 72 73 74 75 76 77 78 79 80 81 82 83 84 85 86 88 -90 -91 -92 0
36 3 8 -32 -7 62 63 64 65 66 67 68 69 70 71 72 73 74 75 76 77 78 79 80 81 82 83 84 85 86 88 -90 -91 -92 0
36 3 8 -7 -33 62 63 64 65 66 67 68 69 70 71 72 73 74 75 76 77 78 79 80 81 82 83 84 85 86 88 -90 -91 -92 0
36 3 8 -7 -34 62 63 64 65 66 67 68 69 70 71 72 73 74 75 76 77 78 79 80 81 82 83 84 85 86 88 -90 -91 -92 0
36 3 8 -7 62 63 64 65 66 67 68 69 70 71 72 73 74 75 76 77 78 79 80 81 82 83 84 85 86 87 88 -90 -91 -92 0
-3 93 0
-1 93 0
-6 93 0
3 1 6 -93 0
-9 94 0
-10 94 0
-11 94 0
-12 94 0
-13 94 0
-14 94 0
-15 94 0
-16 94 0
-17 94 0
-18 94 0
-19 94 0
-20 94 0
-21 94 0
-22 94 0
-23 94 0
-24 94 0
-25 94 0
-26 94 0
-27 94 0
-28 94 0
-29 94 0
-30 94 0
-31 94 0
-32 94 0
-33 94 0
-34 94 0
-4 -93 94 0
4 9 10 11 12 13 14 15 16 17 18 19 20 21 22 23 24 25 26 27 28 29 30 31 32 33 34 -94 0
9 10 11 12 13 14 15 16 17 18 19 20 21 22 23 24 25 26 27 28 29 30 31 32 33 34 93 -94 0
-8 95 0
9 10 11 12 13 14 15 16 17 18 19 20 21 22 23 24 25 26 27 28 29 30 31 32 33 34 -5 95 0
94 95 0
8 -9 -94 -95 0
8 -10 -94 -95 0
8 -11 -94 -95 0
8 -12 -94 -95 0
8 -13 -94 -95 0
8 -14 -94 -95 0
8 -15 -94 -95 0
8 -16 -94 -95 0
8 -17 -94 -95 0
8 -18 -94 -95 0
8 -19 -94 -95 0
8 -20 -94 -95 0
8 -21 -94 -95 0
8 -22 -94 -95 0
8 -23 -94 -95 0
8 -24 -94 -95 0
8 -25 -94 -95 0
8 -26 -94 -95 0
8 -27 -94 -95 0
8 -28 -94 -95 0
8 -29 -94 -95 0
8 -30 -94 -95 0
8 -31 -94 -95 0
8 -32 -94 -95 0
8 -33 -94 -95 0
8 -34 -94 -95 0
8 5 -94 -95 0
4 96 0
3 1 6 96 0
-4 -3 -96 0
-4 -1 -96 0
-4 -6 -96 0
8 -9 -92 -95 0
8 -10 -92 -95 0
8 -11 -92 -95 0
8 -12 -92 -95 0
8 -13 -92 -95 0
8 -14 -92 -95 0
8 -15 -92 -95 0
8 -16 -92 -95 0
8 -17 -92 -95 0
8 -18 -92 -95 0
8 -19 -92 -95 0
8 -20 -92 -95 0
8 -21 -92 -95 0
8 -22 -92 -95 0
8 -23 -92 -95 0
8 -24 -92 -95 0
8 -25 -92 -95 0
8 -26 -92 -95 0
8 -27 -92 -95 0
8 -28 -92 -95 0
8 -29 -92 -95 0
8 -30 -92 -95 0
8 -31 -92 -95 0
8 -32 -92 -95 0
8 -33 -92 -95 0
8 -34 -92 -95 0
8 -92 -95 96 0
8 -9 -95 0
8 -10 -95 0
8 -11 -95 0
8 -12 -95 0
8 -13 -95 0
8 -14 -95 0
8 -15 -95 0
8 -16 -95 0
8 -17 -95 0
8 -18 -95 0
8 -19 -95 0
8 -20 -95 0
8 -21 -95 0
8 -22 -95 0
8 -23 -95 0
8 -24 -95 0
8 -25 -95 0
8 -26 -95 0
8 -27 -95 0
8 -28 -95 0
8 -29 -95 0
8 -30 -95 0
8 -31 -95 0
8 -32 -95 0
8 -33 -95 0
8 -34 -95 0
8 96 -95 0
c 36 k!0
c 3 k!1
c 1 k!2
c 6 k!3
c 4 k!4
c 9 k!5
c 10 k!6
c 11 k!7
c 12 k!8
c 13 k!9
c 14 k!10
c 15 k!11
c 16 k!12
c 17 k!13
c 18 k!14
c 19 k!15
c 20 k!16
c 21 k!17
c 22 k!18
c 23 k!19
c 24 k!20
c 25 k!21
c 26 k!22
c 27 k!23
c 28 k!24
c 29 k!25
c 30 k!26
c 31 k!27
c 32 k!28
c 33 k!29
c 34 k!30
c 8 k!31
c 2 k!32
c 5 k!33
c 7 k!34
c 35 k!35
c 37 k!36
c 38 k!37
c 39 k!38
c 40 k!39
c 41 k!40
c 42 k!41
c 43 k!42
c 44 k!43
c 45 k!44
c 46 k!45
c 47 k!46
c 48 k!47
c 49 k!48
c 50 k!49
c 51 k!50
c 52 k!51
c 53 k!52
c 54 k!53
c 55 k!54
c 56 k!55
c 57 k!56
c 58 k!57
c 59 k!58
c 60 k!59
c 61 k!60
c 62 k!61
c 63 k!62
c 64 k!63
c 65 k!64
c 66 k!65
c 67 k!66
c 68 k!67
c 69 k!68
c 70 k!69
c 71 k!70
c 72 k!71
c 73 k!72
c 74 k!73
c 75 k!74
c 76 k!75
c 77 k!76
c 78 k!77
c 79 k!78
c 80 k!79
c 81 k!80
c 82 k!81
c 83 k!82
c 84 k!83
c 85 k!84
c 86 k!85
c 87 k!86
c 88 k!87
c 89 k!88
c 90 k!89
c 91 k!90
c 92 k!91
c 93 k!92
c 94 k!93
c 95 k!94
c 96 k!95